Route #1: 75 68 2 62 28 47 48 29 45 4
Route #2: 30 74 21 36 69 61 22 64 42 43 41 56 23 49
Route #3: 3 44 32 50 18 24 16 63 1 73 33 6
Route #4: 51 17 40 39 9 25 55 31 10 58 72 12
Route #5: 38 65 66 11 59 14 53 35 7
Route #6: 8 19 54 13 57 15 20 70 60 71 37 5 27 52 34
Route #7: 67 46 26
Cost 730